NAME: random_points
TYPE: TSP
DIMENSION: 50
EDGE_WEIGHT_TYPE: EUC_2D
NODE_COORD_SECTION
1 30 72
2 19 26
3 98 15
4 64 21
5 38 74
6 37 48
7 6 81
8 75 48
9 39 59
10 38 11
11 58 22
12 50 51
13 95 14
14 3 62
15 0 61
16 3 30
17 25 97
18 51 4
19 70 72
20 83 47
21 21 21
22 4 77
23 1 96
24 67 19
25 0 56
26 74 57
27 25 35
28 26 94
29 54 19
30 71 43
31 60 92
32 48 3
33 6 7
34 4 23
35 9 7
36 79 67
37 35 69
38 63 14
39 17 52
40 67 58
41 39 45
42 57 74
43 1 70
44 39 75
45 92 78
46 61 4
47 88 2
48 97 99
49 56 67
50 59 71
EOF
